tsp_instances/TSP50/instance26.tsp
NODE_COORD_SECTION
0 7 173
1 104 110
2 145 20
3 63 183
4 116 75
5 2 89
6 81 41
7 11 98
8 112 105
9 198 170
10 84 11
11 71 155
12 156 157
13 74 5
14 25 162
15 111 42
16 68 78
17 138 67
18 65 145
19 49 84
20 178 34
21 137 111
22 118 95
23 86 96
24 193 67
25 44 152
26 109 126
27 151 196
28 84 127
29 105 83
30 51 185
31 41 44
32 106 100
33 140 26
34 84 131
35 54 119
36 99 3
37 11 136
38 118 94
39 125 155
40 85 71
41 134 21
42 159 169
43 122 28
44 51 94
45 74 78
46 54 56
47 105 33
48 43 123
49 180 94
