tsp_instances/TSP50/instance26.opt.tour
TOUR_SECTION
1
15
26
31
4
12
19
35
29
36
49
45
20
17
46
41
24
30
5
18
22
23
39
33
9
2
27
40
13
43
28
10
50
25
21
3
34
42
44
16
48
37
11
14
7
47
32
6
8
38
-1